c File: instances/32_0.50_1.col
c
c Description: Random graph of size 32 vertices and P(0.49999999999999994) of edges between any two vertices.
p col 32 496
e 1 3
e 1 9
e 1 11
e 1 12
e 1 13
e 1 18
e 1 19
e 1 24
e 1 26
e 1 27
e 1 28
e 1 31
e 2 3
e 2 5
e 2 8
e 2 9
e 2 10
e 2 11
e 2 14
e 2 16
e 2 18
e 2 19
e 2 20
e 2 21
e 2 22
e 2 23
e 2 24
e 2 25
e 2 26
e 2 28
e 3 4
e 3 5
e 3 6
e 3 8
e 3 16
e 3 19
e 3 20
e 3 26
e 3 27
e 3 29
e 3 30
e 3 31
e 4 6
e 4 8
e 4 11
e 4 14
e 4 16
e 4 17
e 4 19
e 4 22
e 4 24
e 4 25
e 4 26
e 4 28
e 4 29
e 4 30
e 4 32
e 5 9
e 5 12
e 5 13
e 5 15
e 5 16
e 5 18
e 5 19
e 5 20
e 5 21
e 5 22
e 5 25
e 5 27
e 5 29
e 5 32
e 6 8
e 6 11
e 6 12
e 6 14
e 6 16
e 6 18
e 6 19
e 6 20
e 6 23
e 6 26
e 6 27
e 6 29
e 6 32
e 7 8
e 7 11
e 7 12
e 7 16
e 7 17
e 7 19
e 7 25
e 7 27
e 7 28
e 7 29
e 8 9
e 8 11
e 8 12
e 8 17
e 8 21
e 8 23
e 9 10
e 9 11
e 9 14
e 9 15
e 9 16
e 9 17
e 9 18
e 9 19
e 9 20
e 9 21
e 9 22
e 9 26
e 9 31
e 9 32
e 10 12
e 10 14
e 10 16
e 10 18
e 10 19
e 10 21
e 10 22
e 10 23
e 10 24
e 10 26
e 10 27
e 10 30
e 11 15
e 11 19
e 11 20
e 11 21
e 11 22
e 11 24
e 11 25
e 11 26
e 11 27
e 11 28
e 11 29
e 11 30
e 11 31
e 12 13
e 12 14
e 12 17
e 12 18
e 12 21
e 12 22
e 12 24
e 12 25
e 12 26
e 12 31
e 13 14
e 13 16
e 13 20
e 13 21
e 13 22
e 13 24
e 13 25
e 13 26
e 14 19
e 14 22
e 14 25
e 14 28
e 14 29
e 14 30
e 15 16
e 15 17
e 15 19
e 15 20
e 15 21
e 15 22
e 15 25
e 15 26
e 15 27
e 15 28
e 15 32
e 16 17
e 16 19
e 16 20
e 16 21
e 16 22
e 16 23
e 16 27
e 16 28
e 16 31
e 16 32
e 17 20
e 17 23
e 17 26
e 17 28
e 17 30
e 17 32
e 18 19
e 18 20
e 18 21
e 18 22
e 18 23
e 18 29
e 18 32
e 19 22
e 19 23
e 19 25
e 19 26
e 19 28
e 19 31
e 20 21
e 20 23
e 20 26
e 20 29
e 21 22
e 21 23
e 21 25
e 21 26
e 21 32
e 22 23
e 22 24
e 22 26
e 22 29
e 22 30
e 22 32
e 23 25
e 23 27
e 23 29
e 23 30
e 23 31
e 23 32
e 24 26
e 24 27
e 24 31
e 25 26
e 25 27
e 25 31
e 26 28
e 26 29
e 26 30
e 27 29
e 27 30
e 27 31
e 27 32
e 28 31
e 28 32
e 30 31
e 30 32